50, 661
48, 53
4, 9
42, 47
16, 21
32, 37
38, 43
46, 51
49, 54
33, 38
48, 53
47, 52
25, 30
29, 34
17, 22
4, 9
37, 42
7, 12
43, 48
35, 40
29, 34
17, 22
9, 14
43, 48
33, 38
31, 36
34, 39
33, 38
6, 11
25, 30
10, 15
9, 14
6, 11
30, 35
29, 34
25, 30
41, 46
44, 49
11, 16
17, 22
17, 22
11, 16
32, 37
36, 41
21, 26
7, 12
18, 23
10, 15
17, 22
49, 54
22, 27
